NAME /Users/henri/Research/solvers/instances/idol-instances/robust/collection/cbp_Subramanyam_et_al_2020/CapBud_N25_19/models/uncertain_technology_matrix/
ROWS
 N  OBJ
 L  capacity
 L  c_4975
 L  c_4976
 L  c_4977
 L  c_4978
 L  c_4979
 L  c_4980
 L  c_4981
 L  c_4982
 L  c_4983
 L  c_4984
 L  c_4985
 L  c_4986
 L  c_4987
 L  c_4988
 L  c_4989
 L  c_4990
 L  c_4991
 L  c_4992
 L  c_4993
 L  c_4994
 L  c_4995
 L  c_4996
 L  c_4997
 L  c_4998
 L  c_4999
COLUMNS
    MARKER    'MARKER'                 'INTORG'
    x_0        OBJ        7.87763
    x_0        c_4975     1
    x_0        capacity   1.57553
    x_1        OBJ        5.00168
    x_1        c_4976     1
    x_1        capacity   1.00034
    x_2        OBJ        2.73777
    x_2        c_4977     1
    x_2        capacity   0.547553
    x_3        OBJ        0.873306
    x_3        c_4978     1
    x_3        capacity   0.174661
    x_4        OBJ        3.36881
    x_4        c_4979     1
    x_4        capacity   0.673762
    x_5        OBJ        5.95282
    x_5        c_4980     1
    x_5        capacity   1.19056
    x_6        OBJ        7.47713
    x_6        c_4981     1
    x_6        capacity   1.49543
    x_7        OBJ        8.88596
    x_7        c_4982     1
    x_7        capacity   1.77719
    x_8        OBJ        5.69966
    x_8        c_4983     1
    x_8        capacity   1.13993
    x_9        OBJ        1.06222
    x_9        c_4984     1
    x_9        capacity   0.212445
    x_10       OBJ        6.83055
    x_10       c_4985     1
    x_10       capacity   1.36611
    x_11       OBJ        0.278187
    x_11       c_4986     1
    x_11       capacity   0.0556374
    x_12       OBJ        7.63542
    x_12       c_4987     1
    x_12       capacity   1.52708
    x_13       OBJ        4.72447
    x_13       c_4988     1
    x_13       capacity   0.944895
    x_14       OBJ        6.87268
    x_14       c_4989     1
    x_14       capacity   1.37454
    x_15       OBJ        8.36929
    x_15       c_4990     1
    x_15       capacity   1.67386
    x_16       OBJ        2.97312
    x_16       c_4991     1
    x_16       capacity   0.594624
    x_17       OBJ        5.53723
    x_17       c_4992     1
    x_17       capacity   1.10745
    x_18       OBJ        2.72672
    x_18       c_4993     1
    x_18       capacity   0.545345
    x_19       OBJ        7.12817
    x_19       c_4994     1
    x_19       capacity   1.42563
    x_20       OBJ        4.16384
    x_20       c_4995     1
    x_20       capacity   0.832768
    x_21       OBJ        3.05882
    x_21       c_4996     1
    x_21       capacity   0.611765
    x_22       OBJ        9.09264
    x_22       c_4997     1
    x_22       capacity   1.81853
    x_23       OBJ        1.28783
    x_23       c_4998     1
    x_23       capacity   0.257566
    x_24       OBJ        1.38601
    x_24       c_4999     1
    x_24       capacity   0.277202
    y_0        OBJ        6.30211
    y_0        c_4975     1
    y_0        capacity   1.57553
    y_1        OBJ        4.00134
    y_1        c_4976     1
    y_1        capacity   1.00034
    y_2        OBJ        2.19021
    y_2        c_4977     1
    y_2        capacity   0.547553
    y_3        OBJ        0.698645
    y_3        c_4978     1
    y_3        capacity   0.174661
    y_4        OBJ        2.69505
    y_4        c_4979     1
    y_4        capacity   0.673762
    y_5        OBJ        4.76226
    y_5        c_4980     1
    y_5        capacity   1.19056
    y_6        OBJ        5.98171
    y_6        c_4981     1
    y_6        capacity   1.49543
    y_7        OBJ        7.10877
    y_7        c_4982     1
    y_7        capacity   1.77719
    y_8        OBJ        4.55973
    y_8        c_4983     1
    y_8        capacity   1.13993
    y_9        OBJ        0.849778
    y_9        c_4984     1
    y_9        capacity   0.212445
    y_10       OBJ        5.46444
    y_10       c_4985     1
    y_10       capacity   1.36611
    y_11       OBJ        0.22255
    y_11       c_4986     1
    y_11       capacity   0.0556374
    y_12       OBJ        6.10834
    y_12       c_4987     1
    y_12       capacity   1.52708
    y_13       OBJ        3.77958
    y_13       c_4988     1
    y_13       capacity   0.944895
    y_14       OBJ        5.49815
    y_14       c_4989     1
    y_14       capacity   1.37454
    y_15       OBJ        6.69543
    y_15       c_4990     1
    y_15       capacity   1.67386
    y_16       OBJ        2.3785
    y_16       c_4991     1
    y_16       capacity   0.594624
    y_17       OBJ        4.42979
    y_17       c_4992     1
    y_17       capacity   1.10745
    y_18       OBJ        2.18138
    y_18       c_4993     1
    y_18       capacity   0.545345
    y_19       OBJ        5.70253
    y_19       c_4994     1
    y_19       capacity   1.42563
    y_20       OBJ        3.33107
    y_20       c_4995     1
    y_20       capacity   0.832768
    y_21       OBJ        2.44706
    y_21       c_4996     1
    y_21       capacity   0.611765
    y_22       OBJ        7.27411
    y_22       c_4997     1
    y_22       capacity   1.81853
    y_23       OBJ        1.03026
    y_23       c_4998     1
    y_23       capacity   0.257566
    y_24       OBJ        1.10881
    y_24       c_4999     1
    y_24       capacity   0.277202
    MARKER    'MARKER'                 'INTEND'
RHS
    RHS       capacity   60.501
    RHS       c_4975     1
    RHS       c_4976     1
    RHS       c_4977     1
    RHS       c_4978     1
    RHS       c_4979     1
    RHS       c_4980     1
    RHS       c_4981     1
    RHS       c_4982     1
    RHS       c_4983     1
    RHS       c_4984     1
    RHS       c_4985     1
    RHS       c_4986     1
    RHS       c_4987     1
    RHS       c_4988     1
    RHS       c_4989     1
    RHS       c_4990     1
    RHS       c_4991     1
    RHS       c_4992     1
    RHS       c_4993     1
    RHS       c_4994     1
    RHS       c_4995     1
    RHS       c_4996     1
    RHS       c_4997     1
    RHS       c_4998     1
    RHS       c_4999     1
BOUNDS
 LI BND       x_0        0
 UI BND       x_0        1
 LI BND       x_1        0
 UI BND       x_1        1
 LI BND       x_2        0
 UI BND       x_2        1
 LI BND       x_3        0
 UI BND       x_3        1
 LI BND       x_4        0
 UI BND       x_4        1
 LI BND       x_5        0
 UI BND       x_5        1
 LI BND       x_6        0
 UI BND       x_6        1
 LI BND       x_7        0
 UI BND       x_7        1
 LI BND       x_8        0
 UI BND       x_8        1
 LI BND       x_9        0
 UI BND       x_9        1
 LI BND       x_10       0
 UI BND       x_10       1
 LI BND       x_11       0
 UI BND       x_11       1
 LI BND       x_12       0
 UI BND       x_12       1
 LI BND       x_13       0
 UI BND       x_13       1
 LI BND       x_14       0
 UI BND       x_14       1
 LI BND       x_15       0
 UI BND       x_15       1
 LI BND       x_16       0
 UI BND       x_16       1
 LI BND       x_17       0
 UI BND       x_17       1
 LI BND       x_18       0
 UI BND       x_18       1
 LI BND       x_19       0
 UI BND       x_19       1
 LI BND       x_20       0
 UI BND       x_20       1
 LI BND       x_21       0
 UI BND       x_21       1
 LI BND       x_22       0
 UI BND       x_22       1
 LI BND       x_23       0
 UI BND       x_23       1
 LI BND       x_24       0
 UI BND       x_24       1
 LI BND       y_0        0
 UI BND       y_0        1
 LI BND       y_1        0
 UI BND       y_1        1
 LI BND       y_2        0
 UI BND       y_2        1
 LI BND       y_3        0
 UI BND       y_3        1
 LI BND       y_4        0
 UI BND       y_4        1
 LI BND       y_5        0
 UI BND       y_5        1
 LI BND       y_6        0
 UI BND       y_6        1
 LI BND       y_7        0
 UI BND       y_7        1
 LI BND       y_8        0
 UI BND       y_8        1
 LI BND       y_9        0
 UI BND       y_9        1
 LI BND       y_10       0
 UI BND       y_10       1
 LI BND       y_11       0
 UI BND       y_11       1
 LI BND       y_12       0
 UI BND       y_12       1
 LI BND       y_13       0
 UI BND       y_13       1
 LI BND       y_14       0
 UI BND       y_14       1
 LI BND       y_15       0
 UI BND       y_15       1
 LI BND       y_16       0
 UI BND       y_16       1
 LI BND       y_17       0
 UI BND       y_17       1
 LI BND       y_18       0
 UI BND       y_18       1
 LI BND       y_19       0
 UI BND       y_19       1
 LI BND       y_20       0
 UI BND       y_20       1
 LI BND       y_21       0
 UI BND       y_21       1
 LI BND       y_22       0
 UI BND       y_22       1
 LI BND       y_23       0
 UI BND       y_23       1
 LI BND       y_24       0
 UI BND       y_24       1
ENDATA
